M+/results-log/S3-5-M+/S3-10-5-1-s-M+.log
CPXPARAM_Read_DataCheck                          1
Found incumbent of value 0.000000 after 0.00 sec. (0.04 ticks)
Tried aggregator 1 time.
MIP Presolve modified 1 coefficients.
Reduced MIP has 316 rows, 1505 columns, and 7520 nonzeros.
Reduced MIP has 1505 binaries, 0 generals, 0 SOSs, and 0 indicators.
Presolve time = 0.00 sec. (3.15 ticks)
Probing time = 0.00 sec. (1.63 ticks)
Tried aggregator 1 time.
Reduced MIP has 316 rows, 1505 columns, and 7520 nonzeros.
Reduced MIP has 1505 binaries, 0 generals, 0 SOSs, and 0 indicators.
Presolve time = 0.02 sec. (3.76 ticks)
Probing time = 0.00 sec. (1.64 ticks)
Clique table members: 3040.
MIP emphasis: balance optimality and feasibility.
MIP search method: dynamic search.
Parallel mode: deterministic, using up to 4 threads.
Root relaxation solution time = 0.00 sec. (5.26 ticks)

        Nodes                                         Cuts/
   Node  Left     Objective  IInf  Best Integer    Best Bound    ItCnt     Gap

*     0+    0                            0.0000     9291.0000              --- 
      0     0     2544.9786     5        0.0000     2544.9786      442     --- 
      0     0     2211.4787   323        0.0000     Cuts: 179      667     --- 
*     0+    0                         2104.0000     2211.4787             5.11%
      0     0        cutoff           2104.0000     2104.0000      849    0.00%
Elapsed time = 0.20 sec. (139.79 ticks, tree = 0.01 MB, solutions = 2)

Clique cuts applied:  291
Cover cuts applied:  8
Flow cuts applied:  2
Mixed integer rounding cuts applied:  7
Zero-half cuts applied:  2

Root node processing (before b&c):
  Real time             =    0.20 sec. (139.90 ticks)
Parallel b&c, 4 threads:
  Real time             =    0.00 sec. (0.00 ticks)
  Sync time (average)   =    0.00 sec.
  Wait time (average)   =    0.00 sec.
                          ------------
Total (root+branch&cut) =    0.20 sec. (139.90 ticks)
